peakDumbCharging = 11100; 
Machine = anon_enum(16); 
machineSpeed = [3700,3700,3700,3700,3700,3700,3700,3700,3700,3700,3700,3700,3700,3700,3700,3700]; 
machineLoad = [3700,3700,3700,3700,3700,3700,3700,3700,3700,3700,3700,3700,3700,3700,3700,3700]; 
Car = anon_enum(8); 
demandCar = [7160,1600,8040,33600,13040,4120,2600,33000]; 
arrivalCar = [80,67,63,59,49,45,44,36]; 
departureCar = [84,68,72,74,57,48,46,71]; 
